nK = 1439;
nT = 4;
nI = 7;
L = 35;
TT = 299;
np = 1;
nc = 3;
b = [39, 28, 66, 65, 67, 60, 46];
d = [95, 135, 104, 102, 126, 100, 105];
m = [1.5, 1.4, 2.2, 2, 1.4, 1.3, 1.6];
pt = [0.2, 0.29, 0.3, 0.34];
st = [11.2, 11.89, 12.6, 18.36];
arc = {<1, 0, 1, 1, 0, 0, 0, [1, 1, 1, 1]>, <2, 1, 2, 1, 0, 0, 0, [1, 1, 1, 1]>, <3, 2, 3, 1, 0, 0, 0, [1, 1, 1, 1]>, <4, 3, 4, 1, 0, 0, 0, [1, 1, 1, 1]>, <5, 4, 5, 1, 0, 0, 0, [1, 1, 1, 1]>, <6, 5, 6, 1, 0, 0, 0, [1, 1, 1, 1]>, <7, 6, 7, 1, 0, 0, 0, [1, 1, 1, 1]>, <8, 7, 8, 1, 0, 0, 0, [1, 1, 1, 1]>, <9, 8, 9, 1, 0, 0, 0, [1, 1, 1, 1]>, <10, 9, 10, 1, 0, 0, 0, [1, 1, 1, 1]>, <11, 10, 11, 1, 0, 0, 0, [1, 1, 1, 1]>, <12, 11, 12, 1, 0, 0, 0, [1, 1, 1, 1]>, <13, 12, 13, 1, 0, 0, 0, [1, 1, 1, 1]>, <14, 13, 14, 1, 0, 0, 0, [1, 1, 1, 1]>, <15, 14, 15, 1, 0, 0, 0, [1, 1, 1, 1]>, <16, 15, 16, 1, 0, 0, 0, [1, 1, 1, 1]>, <17, 16, 17, 1, 0, 0, 0, [1, 1, 1, 1]>, <18, 17, 18, 1, 0, 0, 0, [1, 1, 1, 1]>, <19, 18, 19, 1, 0, 0, 0, [1, 1, 1, 1]>, <20, 19, 20, 1, 0, 0, 0, [1, 1, 1, 1]>, <21, 20, 21, 1, 0, 0, 0, [1, 1, 1, 1]>, <22, 21, 22, 1, 0, 0, 0, [1, 1, 1, 1]>, <23, 22, 23, 1, 0, 0, 0, [1, 1, 1, 1]>, <24, 23, 24, 1, 0, 0, 0, [1, 1, 1, 1]>, <25, 24, 25, 1, 0, 0, 0, [1, 1, 1, 1]>, <26, 25, 26, 1, 0, 0, 0, [1, 1, 1, 1]>, <27, 26, 27, 1, 0, 0, 0, [1, 1, 1, 1]>, <28, 27, 28, 1, 0, 0, 0, [1, 1, 1, 1]>, <29, 28, 29, 1, 0, 0, 0, [1, 1, 1, 1]>, <30, 29, 30, 1, 0, 0, 0, [1, 1, 1, 1]>, <31, 30, 31, 1, 0, 0, 0, [1, 1, 1, 1]>, <32, 31, 32, 1, 0, 0, 0, [1, 1, 1, 1]>, <33, 32, 33, 1, 0, 0, 0, [1, 1, 1, 1]>, <34, 33, 34, 1, 0, 0, 0, [1, 1, 1, 1]>, <35, 34, 35, 1, 0, 0, 0, [1, 1, 1, 1]>, <36, 0, 22, 22, 1, 0, 1, [1, 0, 0, 1]>, <37, 1, 23, 22, 1, 0, 1, [1, 0, 0, 1]>, <38, 2, 24, 22, 1, 0, 1, [1, 0, 0, 1]>, <39, 3, 25, 22, 1, 0, 1, [1, 0, 0, 1]>, <40, 4, 26, 22, 1, 0, 1, [1, 0, 0, 1]>, <41, 5, 27, 22, 1, 0, 1, [1, 0, 0, 1]>, <42, 6, 28, 22, 1, 0, 1, [1, 0, 0, 1]>, <43, 7, 29, 22, 1, 0, 1, [1, 0, 0, 1]>, <44, 8, 30, 22, 1, 0, 1, [1, 0, 0, 1]>, <45, 9, 31, 22, 1, 0, 1, [1, 0, 0, 1]>, <46, 10, 32, 22, 1, 0, 1, [1, 0, 0, 1]>, <47, 11, 33, 22, 1, 0, 1, [1, 0, 0, 1]>, <48, 12, 34, 22, 1, 0, 1, [1, 0, 0, 1]>, <49, 13, 35, 22, 1, 0, 1, [1, 0, 0, 1]>, <50, 0, 21, 21, 2, 0, 0, [0, 0, 1, 1]>, <51, 1, 22, 21, 2, 0, 0, [0, 0, 1, 1]>, <52, 2, 23, 21, 2, 0, 0, [0, 0, 1, 1]>, <53, 3, 24, 21, 2, 0, 0, [0, 0, 1, 1]>, <54, 4, 25, 21, 2, 0, 0, [0, 0, 1, 1]>, <55, 5, 26, 21, 2, 0, 0, [0, 0, 1, 1]>, <56, 6, 27, 21, 2, 0, 0, [0, 0, 1, 1]>, <57, 7, 28, 21, 2, 0, 0, [0, 0, 1, 1]>, <58, 8, 29, 21, 2, 0, 0, [0, 0, 1, 1]>, <59, 9, 30, 21, 2, 0, 0, [0, 0, 1, 1]>, <60, 10, 31, 21, 2, 0, 0, [0, 0, 1, 1]>, <61, 11, 32, 21, 2, 0, 0, [0, 0, 1, 1]>, <62, 12, 33, 21, 2, 0, 0, [0, 0, 1, 1]>, <63, 13, 34, 21, 2, 0, 0, [0, 0, 1, 1]>, <64, 14, 35, 21, 2, 0, 0, [0, 0, 1, 1]>, <65, 0, 22, 22, 3, 1, 0, [1, 0, 0, 1]>, <66, 1, 23, 22, 3, 1, 0, [1, 0, 0, 1]>, <67, 2, 24, 22, 3, 1, 0, [1, 0, 0, 1]>, <68, 3, 25, 22, 3, 1, 0, [1, 0, 0, 1]>, <69, 4, 26, 22, 3, 1, 0, [1, 0, 0, 1]>, <70, 5, 27, 22, 3, 1, 0, [1, 0, 0, 1]>, <71, 6, 28, 22, 3, 1, 0, [1, 0, 0, 1]>, <72, 7, 29, 22, 3, 1, 0, [1, 0, 0, 1]>, <73, 8, 30, 22, 3, 1, 0, [1, 0, 0, 1]>, <74, 9, 31, 22, 3, 1, 0, [1, 0, 0, 1]>, <75, 10, 32, 22, 3, 1, 0, [1, 0, 0, 1]>, <76, 11, 33, 22, 3, 1, 0, [1, 0, 0, 1]>, <77, 12, 34, 22, 3, 1, 0, [1, 0, 0, 1]>, <78, 13, 35, 22, 3, 1, 0, [1, 0, 0, 1]>, <79, 0, 18, 18, 4, 0, 0, [0, 1, 1, 0]>, <80, 1, 19, 18, 4, 0, 0, [0, 1, 1, 0]>, <81, 2, 20, 18, 4, 0, 0, [0, 1, 1, 0]>, <82, 3, 21, 18, 4, 0, 0, [0, 1, 1, 0]>, <83, 4, 22, 18, 4, 0, 0, [0, 1, 1, 0]>, <84, 5, 23, 18, 4, 0, 0, [0, 1, 1, 0]>, <85, 6, 24, 18, 4, 0, 0, [0, 1, 1, 0]>, <86, 8, 26, 18, 4, 0, 0, [0, 1, 1, 0]>, <87, 9, 27, 18, 4, 0, 0, [0, 1, 1, 0]>, <88, 10, 28, 18, 4, 0, 0, [0, 1, 1, 0]>, <89, 11, 29, 18, 4, 0, 0, [0, 1, 1, 0]>, <90, 12, 30, 18, 4, 0, 0, [0, 1, 1, 0]>, <91, 13, 31, 18, 4, 0, 0, [0, 1, 1, 0]>, <92, 14, 32, 18, 4, 0, 0, [0, 1, 1, 0]>, <93, 15, 33, 18, 4, 0, 0, [0, 1, 1, 0]>, <94, 16, 34, 18, 4, 0, 0, [0, 1, 1, 0]>, <95, 17, 35, 18, 4, 0, 0, [0, 1, 1, 0]>, <96, 0, 21, 21, 5, 0, 0, [0, 1, 1, 0]>, <97, 1, 22, 21, 5, 0, 0, [0, 1, 1, 0]>, <98, 2, 23, 21, 5, 0, 0, [0, 1, 1, 0]>, <99, 3, 24, 21, 5, 0, 0, [0, 1, 1, 0]>, <100, 4, 25, 21, 5, 0, 0, [0, 1, 1, 0]>, <101, 5, 26, 21, 5, 0, 0, [0, 1, 1, 0]>, <102, 6, 27, 21, 5, 0, 0, [0, 1, 1, 0]>, <103, 7, 28, 21, 5, 0, 0, [0, 1, 1, 0]>, <104, 8, 29, 21, 5, 0, 0, [0, 1, 1, 0]>, <105, 9, 30, 21, 5, 0, 0, [0, 1, 1, 0]>, <106, 10, 31, 21, 5, 0, 0, [0, 1, 1, 0]>, <107, 11, 32, 21, 5, 0, 0, [0, 1, 1, 0]>, <108, 12, 33, 21, 5, 0, 0, [0, 1, 1, 0]>, <109, 13, 34, 21, 5, 0, 0, [0, 1, 1, 0]>, <110, 14, 35, 21, 5, 0, 0, [0, 1, 1, 0]>, <111, 0, 19, 19, 6, 0, 0, [1, 0, 0, 1]>, <112, 1, 20, 19, 6, 0, 0, [1, 0, 0, 1]>, <113, 2, 21, 19, 6, 0, 0, [1, 0, 0, 1]>, <114, 3, 22, 19, 6, 0, 0, [1, 0, 0, 1]>, <115, 4, 23, 19, 6, 0, 0, [1, 0, 0, 1]>, <116, 5, 24, 19, 6, 0, 0, [1, 0, 0, 1]>, <117, 6, 25, 19, 6, 0, 0, [1, 0, 0, 1]>, <118, 7, 26, 19, 6, 0, 0, [1, 0, 0, 1]>, <119, 8, 27, 19, 6, 0, 0, [1, 0, 0, 1]>, <120, 9, 28, 19, 6, 0, 0, [1, 0, 0, 1]>, <121, 10, 29, 19, 6, 0, 0, [1, 0, 0, 1]>, <122, 11, 30, 19, 6, 0, 0, [1, 0, 0, 1]>, <123, 12, 31, 19, 6, 0, 0, [1, 0, 0, 1]>, <124, 13, 32, 19, 6, 0, 0, [1, 0, 0, 1]>, <125, 14, 33, 19, 6, 0, 0, [1, 0, 0, 1]>, <126, 15, 34, 19, 6, 0, 0, [1, 0, 0, 1]>, <127, 16, 35, 19, 6, 0, 0, [1, 0, 0, 1]>, <128, 0, 17, 17, 7, 0, 1, [0, 0, 1, 1]>, <129, 1, 18, 17, 7, 0, 1, [0, 0, 1, 1]>, <130, 2, 19, 17, 7, 0, 1, [0, 0, 1, 1]>, <131, 3, 20, 17, 7, 0, 1, [0, 0, 1, 1]>, <132, 4, 21, 17, 7, 0, 1, [0, 0, 1, 1]>, <133, 5, 22, 17, 7, 0, 1, [0, 0, 1, 1]>, <134, 6, 23, 17, 7, 0, 1, [0, 0, 1, 1]>, <135, 9, 26, 17, 7, 0, 1, [0, 0, 1, 1]>, <136, 10, 27, 17, 7, 0, 1, [0, 0, 1, 1]>, <137, 11, 28, 17, 7, 0, 1, [0, 0, 1, 1]>, <138, 12, 29, 17, 7, 0, 1, [0, 0, 1, 1]>, <139, 13, 30, 17, 7, 0, 1, [0, 0, 1, 1]>, <140, 14, 31, 17, 7, 0, 1, [0, 0, 1, 1]>, <141, 15, 32, 17, 7, 0, 1, [0, 0, 1, 1]>, <142, 16, 33, 17, 7, 0, 1, [0, 0, 1, 1]>, <143, 17, 34, 17, 7, 0, 1, [0, 0, 1, 1]>, <144, 18, 35, 17, 7, 0, 1, [0, 0, 1, 1]>};
